GLPSOL--GLPK LP/MIP Solver 5.0
Parameter(s) specified in the command line:
 --lp ../modeles/5_244.lp --log 5_244.log
Reading problem data from '../modeles/5_244.lp'...
1241 rows, 2450 columns, 8555 non-zeros
1220 integer variables, all of which are binary
3702 lines were read
GLPK Integer Optimizer 5.0
1241 rows, 2450 columns, 8555 non-zeros
1220 integer variables, all of which are binary
Preprocessing...
1210 constraint coefficient(s) were reduced
1241 rows, 2445 columns, 8550 non-zeros
1220 integer variables, all of which are binary
Scaling...
 A: min|aij| =  2.687e-04  max|aij| =  4.000e+00  ratio =  1.488e+04
GM: min|aij| =  9.054e-02  max|aij| =  1.105e+01  ratio =  1.220e+02
EQ: min|aij| =  8.197e-03  max|aij| =  1.000e+00  ratio =  1.220e+02
2N: min|aij| =  7.812e-03  max|aij| =  1.759e+00  ratio =  2.251e+02
Constructing initial basis...
Size of triangular part is 1241
Solving LP relaxation...
GLPK Simplex Optimizer 5.0
1241 rows, 2445 columns, 8550 non-zeros
      0: obj =   1.000000000e+01 inf =   2.450e+01 (11)
     84: obj =   3.815811578e-01 inf =   0.000e+00 (0)
*   313: obj =  -2.235767511e+00 inf =   2.714e-15 (0)
OPTIMAL LP SOLUTION FOUND
Integer optimization begins...
Long-step dual simplex will be used
+   313: mip =     not found yet >=              -inf        (1; 0)
+  1000: >>>>>  -2.235767511e+00 >=  -2.235767511e+00 < 0.1% (683; 0)
+  1000: mip =  -2.235767511e+00 >=     tree is empty   0.0% (0; 1365)
INTEGER OPTIMAL SOLUTION FOUND
Time used:   1.2 secs
Memory used: 3.6 Mb (3826371 bytes)
